\ This file has been generated by DOcplex
\ ENCODING=ISO-8859-1
\Problem name: LABS of size 3

Minimize
 obj: [ 2 C_1^2 + 2 C_2^2 ]/2
Subject To
 c1: - 4 b_1 - 2 b_2 - 2 b_3 + 4 b_y_1_2 + 4 b_y_2_3 - C_1 = -2
 c2: - 2 b_2 - 2 b_3 + 4 b_y_1_3 - C_2 = -1
 c3: b_y_1_2 - 0.500000000000 b_1 - 0.500000000000 b_2 <= 0
 c4: b_y_1_2 - b_1 - b_2 >= -1
 c5: b_y_2_3 - 0.500000000000 b_2 - 0.500000000000 b_3 <= 0
 c6: b_y_2_3 - b_2 - b_3 >= -1
 c7: b_y_1_3 - 0.500000000000 b_1 - 0.500000000000 b_3 <= 0
 c8: b_y_1_3 - b_1 - b_3 >= -1

Bounds
 0 <= b_1 <= 1
 0 <= b_2 <= 1
 0 <= b_3 <= 1
 0 <= b_y_1_2 <= 1
 0 <= b_y_2_3 <= 1
 0 <= b_y_1_3 <= 1
 -2 <= C_1 <= 2
 -1 <= C_2 <= 1

Binaries
 b_1 b_2 b_3 b_y_1_2 b_y_2_3 b_y_1_3

Generals
 C_1 C_2
End
